NAME : prob15c.5008.tour
COMMENT : Cost = 0_5008
COMMENT : Found by LKH [Keld Helsgaun] Sun Sep 17 01:05:33 2017
TYPE : TOUR
DIMENSION : 31
TOUR_SECTION
1
31
30
19
21
17
4
6
18
25
26
28
29
24
11
15
22
7
16
10
23
2
27
12
8
3
20
14
5
13
9
-1
EOF
